     Program PWSCF v.7.1 starts on  2May2023 at 12: 4: 5

     Reading input from espresso_scf.pwi
Warning: card &CELL ignored
Warning: card / ignored

     Current dimensions of program PWSCF are:
     Max number of different atomic species (ntypx) = 10
     Max number of k-points (npk) =  40000
     Max angular momentum in pseudopotentials (lmaxx) =  4
     Presently no symmetry can be used with electric field

     Presently stress not available with electric field and gates

     IMPORTANT: XC functional enforced from input :
     Exchange-correlation= VDW-DF2-B86R
                           (   1   4  26   0   2   0   0)
     Any further DFT definition will be discarded
     Please, verify this is what you really want

     R & G space division:  proc/nbgrp/npool/nimage =      40
     Subspace diagonalization in iterative solution of the eigenvalue problem:
     a serial algorithm will be used

     Using Slab Decomposition

     bravais-lattice index     =            0
     lattice parameter (alat)  =       5.6944  a.u.
     unit-cell volume          =    1076.1643 (a.u.)^3
     number of atoms/cell      =            4
     number of atomic types    =            2
     number of electrons       =         8.00
     number of Kohn-Sham states=            8
     kinetic-energy cutoff     =      60.0000  Ry
     charge density cutoff     =     480.0000  Ry
     scf convergence threshold =      1.0E-09
     mixing beta               =       0.7000
     number of iterations used =            8  plain     mixing
     Exchange-correlation= VDW-DF2-B86R
                           (   1   4  26   0   2   0   0)

     celldm(1)=   5.694435  celldm(2)=   0.000000  celldm(3)=   0.000000
     celldm(4)=   0.000000  celldm(5)=   0.000000  celldm(6)=   0.000000

     crystal axes: (cart. coord. in units of alat)
               a(1) = (   0.999994  -0.003588   0.000000 )
               a(2) = (   0.503173   0.876310   0.000000 )
               a(3) = (   0.000000   0.000000   6.637096 )

     reciprocal axes: (cart. coord. in units 2 pi/alat)
               b(1) = (  0.997950 -0.573019  0.000000 )
               b(2) = (  0.004086  1.138803  0.000000 )
               b(3) = (  0.000000  0.000000  0.150668 )

     PseudoPot. # 1 for B  read from file:
     /home/krojas/share/lib/qe_pseudo/gbrv/b_pbe_v1.4.uspp.F.UPF
     MD5 check sum: cc6de2960df11db49a60e589f9ebb39b
     Pseudo is Ultrasoft + core correction, Zval =  3.0
     Generated by new atomic code, or converted to UPF format
     Using radial grid of  781 points,  4 beta functions with:
                l(1) =   0
                l(2) =   0
                l(3) =   1
                l(4) =   1
     Q(r) pseudized with  8 coefficients,  rinner =    1.100   1.100   1.100

     PseudoPot. # 2 for H  read from file:
     /home/krojas/share/lib/qe_pseudo/gbrv/h_pbe_v1.4.uspp.F.UPF
     MD5 check sum: 761ae9a214b05c3daf00ab9f6b793d6f
     Pseudo is Ultrasoft, Zval =  1.0
     Generated by new atomic code, or converted to UPF format
     Using radial grid of  615 points,  2 beta functions with:
                l(1) =   0
                l(2) =   0
     Q(r) pseudized with  8 coefficients,  rinner =    0.700

     atomic species   valence    mass     pseudopotential
        B              3.00    10.81000     B ( 1.00)
        H              1.00     1.00800     H ( 1.00)

     No symmetry found

                                    s                        frac. trans.

      isym =  1     identity

 cryst.   s( 1) = (     1          0          0      )
                  (     0          1          0      )
                  (     0          0          1      )

 cart.    s( 1) = (  1.0000000 -0.0000000  0.0000000 )
                  (  0.0000000  1.0000000  0.0000000 )
                  (  0.0000000  0.0000000  1.0000000 )

   Cartesian axes

     site n.     atom                  positions (alat units)
         1           B   tau(   1) = (   0.0000000   0.0000000   3.3517347  )
         2           B   tau(   2) = (   0.5009411   0.2697366   3.3517347  )
         3           H   tau(   3) = (   0.5020641   0.5730585   3.6727695  )
         4           H   tau(   4) = (   0.5020641   0.5730585   3.0306999  )

   Crystallographic axes

     site n.     atom                  positions (cryst. coord.)
         1           B   tau(   1) = (  0.0000000  0.0000000  0.5050002  )
         2           B   tau(   2) = (  0.3453503  0.3092238  0.5050002  )
         3           H   tau(   3) = (  0.1726619  0.6546522  0.5533699  )
         4           H   tau(   4) = (  0.1726619  0.6546522  0.4566304  )

     number of k points=   130  Gaussian smearing, width (Ry)=  0.0100
                       cart. coord. in units 2pi/alat
        k(    1) = (   0.0000000   0.0000000   0.0000000), wk =   0.0078125
        k(    2) = (   0.0002554   0.0711752   0.0000000), wk =   0.0156250
        k(    3) = (   0.0005108   0.1423504   0.0000000), wk =   0.0156250
        k(    4) = (   0.0007662   0.2135255   0.0000000), wk =   0.0156250
        k(    5) = (   0.0010216   0.2847007   0.0000000), wk =   0.0156250
        k(    6) = (   0.0012770   0.3558759   0.0000000), wk =   0.0156250
        k(    7) = (   0.0015324   0.4270511   0.0000000), wk =   0.0156250
        k(    8) = (   0.0017878   0.4982262   0.0000000), wk =   0.0156250
        k(    9) = (  -0.0020431  -0.5694014   0.0000000), wk =   0.0078125
        k(   10) = (   0.0623719  -0.0358137   0.0000000), wk =   0.0156250
        k(   11) = (   0.0626273   0.0353615   0.0000000), wk =   0.0156250
        k(   12) = (   0.0628827   0.1065367   0.0000000), wk =   0.0156250
        k(   13) = (   0.0631381   0.1777119   0.0000000), wk =   0.0156250
        k(   14) = (   0.0633935   0.2488870   0.0000000), wk =   0.0156250
        k(   15) = (   0.0636489   0.3200622   0.0000000), wk =   0.0156250
        k(   16) = (   0.0639043   0.3912374   0.0000000), wk =   0.0156250
        k(   17) = (   0.0641596   0.4624126   0.0000000), wk =   0.0156250
        k(   18) = (   0.0603288  -0.6052151   0.0000000), wk =   0.0156250
        k(   19) = (   0.0605841  -0.5340399   0.0000000), wk =   0.0156250
        k(   20) = (   0.0608395  -0.4628647   0.0000000), wk =   0.0156250
        k(   21) = (   0.0610949  -0.3916895   0.0000000), wk =   0.0156250
        k(   22) = (   0.0613503  -0.3205144   0.0000000), wk =   0.0156250
        k(   23) = (   0.0616057  -0.2493392   0.0000000), wk =   0.0156250
        k(   24) = (   0.0618611  -0.1781640   0.0000000), wk =   0.0156250
        k(   25) = (   0.0621165  -0.1069888   0.0000000), wk =   0.0156250
        k(   26) = (   0.1247438  -0.0716273   0.0000000), wk =   0.0156250
        k(   27) = (   0.1249992  -0.0004521   0.0000000), wk =   0.0156250
        k(   28) = (   0.1252546   0.0707230   0.0000000), wk =   0.0156250
        k(   29) = (   0.1255100   0.1418982   0.0000000), wk =   0.0156250
        k(   30) = (   0.1257654   0.2130734   0.0000000), wk =   0.0156250
        k(   31) = (   0.1260208   0.2842486   0.0000000), wk =   0.0156250
        k(   32) = (   0.1262761   0.3554237   0.0000000), wk =   0.0156250
        k(   33) = (   0.1265315   0.4265989   0.0000000), wk =   0.0156250
        k(   34) = (   0.1227006  -0.6410287   0.0000000), wk =   0.0156250
        k(   35) = (   0.1229560  -0.5698535   0.0000000), wk =   0.0156250
        k(   36) = (   0.1232114  -0.4986784   0.0000000), wk =   0.0156250
        k(   37) = (   0.1234668  -0.4275032   0.0000000), wk =   0.0156250
        k(   38) = (   0.1237222  -0.3563280   0.0000000), wk =   0.0156250
        k(   39) = (   0.1239776  -0.2851528   0.0000000), wk =   0.0156250
        k(   40) = (   0.1242330  -0.2139777   0.0000000), wk =   0.0156250
        k(   41) = (   0.1244884  -0.1428025   0.0000000), wk =   0.0156250
        k(   42) = (   0.1871157  -0.1074410   0.0000000), wk =   0.0156250
        k(   43) = (   0.1873711  -0.0362658   0.0000000), wk =   0.0156250
        k(   44) = (   0.1876265   0.0349094   0.0000000), wk =   0.0156250
        k(   45) = (   0.1878819   0.1060846   0.0000000), wk =   0.0156250
        k(   46) = (   0.1881373   0.1772597   0.0000000), wk =   0.0156250
        k(   47) = (   0.1883926   0.2484349   0.0000000), wk =   0.0156250
        k(   48) = (   0.1886480   0.3196101   0.0000000), wk =   0.0156250
        k(   49) = (   0.1889034   0.3907853   0.0000000), wk =   0.0156250
        k(   50) = (   0.1850725  -0.6768424   0.0000000), wk =   0.0156250
        k(   51) = (   0.1853279  -0.6056672   0.0000000), wk =   0.0156250
        k(   52) = (   0.1855833  -0.5344920   0.0000000), wk =   0.0156250
        k(   53) = (   0.1858387  -0.4633169   0.0000000), wk =   0.0156250
        k(   54) = (   0.1860941  -0.3921417   0.0000000), wk =   0.0156250
        k(   55) = (   0.1863495  -0.3209665   0.0000000), wk =   0.0156250
        k(   56) = (   0.1866049  -0.2497913   0.0000000), wk =   0.0156250
        k(   57) = (   0.1868603  -0.1786161   0.0000000), wk =   0.0156250
        k(   58) = (   0.2494876  -0.1432546   0.0000000), wk =   0.0156250
        k(   59) = (   0.2497430  -0.0720795   0.0000000), wk =   0.0156250
        k(   60) = (   0.2499984  -0.0009043   0.0000000), wk =   0.0156250
[...]
        k(  116) = (   0.4350709  -0.6777467   0.0000000), wk =   0.0156250
        k(  117) = (   0.4353263  -0.6065715   0.0000000), wk =   0.0156250
        k(  118) = (   0.4355817  -0.5353963   0.0000000), wk =   0.0156250
        k(  119) = (   0.4358371  -0.4642211   0.0000000), wk =   0.0156250
        k(  120) = (   0.4360925  -0.3930460   0.0000000), wk =   0.0156250
        k(  121) = (   0.4363479  -0.3218708   0.0000000), wk =   0.0156250
        k(  122) = (  -0.4989752   0.2865093   0.0000000), wk =   0.0078125
        k(  123) = (  -0.4987198   0.3576844   0.0000000), wk =   0.0156250
        k(  124) = (  -0.4984644   0.4288596   0.0000000), wk =   0.0156250
        k(  125) = (  -0.4982090   0.5000348   0.0000000), wk =   0.0156250
        k(  126) = (  -0.4979536   0.5712100   0.0000000), wk =   0.0156250
        k(  127) = (  -0.4976982   0.6423851   0.0000000), wk =   0.0156250
        k(  128) = (  -0.4974428   0.7135603   0.0000000), wk =   0.0156250
        k(  129) = (  -0.4971874   0.7847355   0.0000000), wk =   0.0156250
        k(  130) = (  -0.5010183  -0.2828922   0.0000000), wk =   0.0078125

                       cryst. coord.
        k(    1) = (   0.0000000   0.0000000   0.0000000), wk =   0.0078125
        k(    2) = (   0.0000000   0.0625000   0.0000000), wk =   0.0156250
        k(    3) = (   0.0000000   0.1250000   0.0000000), wk =   0.0156250
        k(    4) = (   0.0000000   0.1875000   0.0000000), wk =   0.0156250
        k(    5) = (   0.0000000   0.2500000   0.0000000), wk =   0.0156250
        k(    6) = (   0.0000000   0.3125000   0.0000000), wk =   0.0156250
        k(    7) = (   0.0000000   0.3750000   0.0000000), wk =   0.0156250
        k(    8) = (   0.0000000   0.4375000   0.0000000), wk =   0.0156250
        k(    9) = (   0.0000000  -0.5000000   0.0000000), wk =   0.0078125
        k(   10) = (   0.0625000   0.0000000   0.0000000), wk =   0.0156250
        k(   11) = (   0.0625000   0.0625000   0.0000000), wk =   0.0156250
        k(   12) = (   0.0625000   0.1250000   0.0000000), wk =   0.0156250
        k(   13) = (   0.0625000   0.1875000   0.0000000), wk =   0.0156250
        k(   14) = (   0.0625000   0.2500000   0.0000000), wk =   0.0156250
        k(   15) = (   0.0625000   0.3125000   0.0000000), wk =   0.0156250
        k(   16) = (   0.0625000   0.3750000   0.0000000), wk =   0.0156250
        k(   17) = (   0.0625000   0.4375000   0.0000000), wk =   0.0156250
        k(   18) = (   0.0625000  -0.5000000   0.0000000), wk =   0.0156250
        k(   19) = (   0.0625000  -0.4375000   0.0000000), wk =   0.0156250
        k(   20) = (   0.0625000  -0.3750000   0.0000000), wk =   0.0156250
        k(   21) = (   0.0625000  -0.3125000   0.0000000), wk =   0.0156250
        k(   22) = (   0.0625000  -0.2500000   0.0000000), wk =   0.0156250
        k(   23) = (   0.0625000  -0.1875000   0.0000000), wk =   0.0156250
        k(   24) = (   0.0625000  -0.1250000   0.0000000), wk =   0.0156250
        k(   25) = (   0.0625000  -0.0625000   0.0000000), wk =   0.0156250
        k(   26) = (   0.1250000   0.0000000   0.0000000), wk =   0.0156250
        k(   27) = (   0.1250000   0.0625000   0.0000000), wk =   0.0156250
        k(   28) = (   0.1250000   0.1250000   0.0000000), wk =   0.0156250
        k(   29) = (   0.1250000   0.1875000   0.0000000), wk =   0.0156250
        k(   30) = (   0.1250000   0.2500000   0.0000000), wk =   0.0156250
        k(   31) = (   0.1250000   0.3125000   0.0000000), wk =   0.0156250
        k(   32) = (   0.1250000   0.3750000   0.0000000), wk =   0.0156250
        k(   33) = (   0.1250000   0.4375000   0.0000000), wk =   0.0156250
        k(   34) = (   0.1250000  -0.5000000   0.0000000), wk =   0.0156250
        k(   35) = (   0.1250000  -0.4375000   0.0000000), wk =   0.0156250
        k(   36) = (   0.1250000  -0.3750000   0.0000000), wk =   0.0156250
        k(   37) = (   0.1250000  -0.3125000   0.0000000), wk =   0.0156250
        k(   38) = (   0.1250000  -0.2500000   0.0000000), wk =   0.0156250
        k(   39) = (   0.1250000  -0.1875000   0.0000000), wk =   0.0156250
        k(   40) = (   0.1250000  -0.1250000   0.0000000), wk =   0.0156250
        k(   41) = (   0.1250000  -0.0625000   0.0000000), wk =   0.0156250
        k(   42) = (   0.1875000  -0.0000000   0.0000000), wk =   0.0156250
        k(   43) = (   0.1875000   0.0625000   0.0000000), wk =   0.0156250
        k(   44) = (   0.1875000   0.1250000   0.0000000), wk =   0.0156250
        k(   45) = (   0.1875000   0.1875000   0.0000000), wk =   0.0156250
        k(   46) = (   0.1875000   0.2500000   0.0000000), wk =   0.0156250
        k(   47) = (   0.1875000   0.3125000   0.0000000), wk =   0.0156250
        k(   48) = (   0.1875000   0.3750000   0.0000000), wk =   0.0156250
        k(   49) = (   0.1875000   0.4375000   0.0000000), wk =   0.0156250
        k(   50) = (   0.1875000  -0.5000000   0.0000000), wk =   0.0156250
        k(   51) = (   0.1875000  -0.4375000   0.0000000), wk =   0.0156250
        k(   52) = (   0.1875000  -0.3750000   0.0000000), wk =   0.0156250
        k(   53) = (   0.1875000  -0.3125000   0.0000000), wk =   0.0156250
        k(   54) = (   0.1875000  -0.2500000   0.0000000), wk =   0.0156250
        k(   55) = (   0.1875000  -0.1875000   0.0000000), wk =   0.0156250
        k(   56) = (   0.1875000  -0.1250000   0.0000000), wk =   0.0156250
        k(   57) = (   0.1875000  -0.0625000   0.0000000), wk =   0.0156250
        k(   58) = (   0.2500000   0.0000000   0.0000000), wk =   0.0156250
        k(   59) = (   0.2500000   0.0625000   0.0000000), wk =   0.0156250
        k(   60) = (   0.2500000   0.1250000   0.0000000), wk =   0.0156250
[...]
        k(  116) = (   0.4375000  -0.3750000   0.0000000), wk =   0.0156250
        k(  117) = (   0.4375000  -0.3125000   0.0000000), wk =   0.0156250
        k(  118) = (   0.4375000  -0.2500000   0.0000000), wk =   0.0156250
        k(  119) = (   0.4375000  -0.1875000   0.0000000), wk =   0.0156250
        k(  120) = (   0.4375000  -0.1250000   0.0000000), wk =   0.0156250
        k(  121) = (   0.4375000  -0.0625000   0.0000000), wk =   0.0156250
        k(  122) = (  -0.5000000   0.0000000   0.0000000), wk =   0.0078125
        k(  123) = (  -0.5000000   0.0625000   0.0000000), wk =   0.0156250
        k(  124) = (  -0.5000000   0.1250000   0.0000000), wk =   0.0156250
        k(  125) = (  -0.5000000   0.1875000   0.0000000), wk =   0.0156250
        k(  126) = (  -0.5000000   0.2500000   0.0000000), wk =   0.0156250
        k(  127) = (  -0.5000000   0.3125000   0.0000000), wk =   0.0156250
        k(  128) = (  -0.5000000   0.3750000   0.0000000), wk =   0.0156250
        k(  129) = (  -0.5000000   0.4375000   0.0000000), wk =   0.0156250
        k(  130) = (  -0.5000000  -0.5000000   0.0000000), wk =   0.0078125

     Initial potential from superposition of free atoms

     starting charge       7.9994, renormalised to       8.0000

     negative rho (up, down):  5.717E-05 0.000E+00

     %%%%%%%%%%%%%%%%%%%%%%%%%%%%%%%%%%%%%%%%%%%%%%%%%%%%%%%%%%%%%%%%%%%%%%%%
     %                                                                      %
     % You are using vdW-DF, which was implemented by the Thonhauser group. %
     % Please cite the following two papers that made this development      %
     % possible and the two reviews that describe the various versions:     %
     %                                                                      %
     %   T. Thonhauser et al., PRL 115, 136402 (2015).                      %
     %   T. Thonhauser et al., PRB 76, 125112 (2007).                       %
     %   K. Berland et al., Rep. Prog. Phys. 78, 066501 (2015).             %
     %   D.C. Langreth et al., J. Phys.: Condens. Matter 21, 084203 (2009). %
     %                                                                      %
     % If you are calculating stress with vdW-DF, please also cite:         %
     %                                                                      %
     %   R. Sabatini et al., J. Phys.: Condens. Matter 24, 424209 (2012).   %
     %                                                                      %
     %%%%%%%%%%%%%%%%%%%%%%%%%%%%%%%%%%%%%%%%%%%%%%%%%%%%%%%%%%%%%%%%%%%%%%%%

     %%%%%%%%%%%%%%%%%%%%%%%%%%%%%%%%%%%%%%%%%%%%%%%%%%%%%%%%%%%%%%%%%%%%%%%%
     %                                                                      %
     %  vdW-DF NEWS:                                                        %
     %                                                                      %
     %  * vdW-DF3 is now available. DOI: 10.1021/acs.jctc.0c00471           %
     %    use with input_dft = 'vdW-DF3-opt1' or 'vdW-DF3-opt2'             %
     %                                                                      %
     %  * Unscreened and range-separated vdW-DF hybrid functionals          %
     %    DOI: 10.1063/1.4986522 and 10.1088/1361-648X/ac2ad2               %
     %    use with input_dft = 'vdW-DF-cx0' (etc) and 'vdW-DF-ahcx'         %
     %                                                                      %
     %%%%%%%%%%%%%%%%%%%%%%%%%%%%%%%%%%%%%%%%%%%%%%%%%%%%%%%%%%%%%%%%%%%%%%%%

     Carrying out vdW-DF run using the following parameters:
     Nqs    =  20  Npoints =  1024  r_max =  100.000
     q_mesh =  0.00001000  0.04494208  0.09755937  0.15916263
               0.23128650  0.31572767  0.41458969  0.53033537
               0.66584808  0.82450364  1.01025438  1.22772762
               1.48234092  1.78043706  2.12944203  2.53805004
               3.01644009  3.57652955  4.23227104  5.00000000

     Non-local corr. energy    =       0.08388643 Ry

     Adding external electric field

     Computed dipole along edir(3) :
        Elec. dipole         -0.5119 Ry au,         -1.3012 Debye
        Ion. dipole          -0.5119 Ry au,         -1.3012 Debye
        Dipole               -0.0000 Ry au,         -0.0000 Debye
        Dipole field         -0.0000 Ry au,

        Potential amp.        0.0000 Ry
        Total length         34.0151 bohr

     Starting wfcs are   10 randomized atomic wfcs

     Self-consistent Calculation

     iteration #  1     ecut=    60.00 Ry     beta= 0.70
     Davidson diagonalization with overlap

     ethr =  1.00E-02,  avg # of iterations =  3.9

[...]

     total energy              =     -15.04597374 Ry
     estimated scf accuracy    <       0.32786395 Ry

[...]

     c_bands:  1 eigenvalues not converged
     c_bands:  1 eigenvalues not converged
     c_bands:  1 eigenvalues not converged
     ethr =  9.31E-06,  avg # of iterations =  7.7

[...]

     c_bands:  1 eigenvalues not converged
     c_bands:  1 eigenvalues not converged
     ethr =  1.03E-07,  avg # of iterations =  3.2

[...]

     total energy              =     -15.10408232 Ry
     estimated scf accuracy    <       0.00000001 Ry

     iteration #  8     ecut=    60.00 Ry     beta= 0.70
     Davidson diagonalization with overlap

     ethr =  1.62E-10,  avg # of iterations =  2.0

[...]

     Adding external electric field

     Computed dipole along edir(3) :
        Elec. dipole         -0.5119 Ry au,         -1.3012 Debye
        Ion. dipole          -0.5119 Ry au,         -1.3012 Debye
        Dipole                0.0000 Ry au,          0.0001 Debye
        Dipole field          0.0000 Ry au,

        Potential amp.       -0.0000 Ry
        Total length         34.0151 bohr

     End of self-consistent calculation

          k = 0.0000 0.0000 0.0000 (  8359 PWs)   bands (ev):

   -15.4416  -9.7627  -3.9957  -1.6182  -0.3113   0.7744   1.3021   2.2010

     occupation numbers
     1.0000   1.0000   1.0000   0.0000   0.0000   0.0000   0.0000   0.0000

[...]

          k =-0.0020-0.5694 0.0000 (  8472 PWs)   bands (ev):

[...]

          k = 0.4363-0.3219 0.0000 (  8459 PWs)   bands (ev):

[...]

          k =-0.5010-0.2829 0.0000 (  8462 PWs)   bands (ev):

   -13.2150  -8.6815  -7.7186  -4.8874  -0.1139   3.5409   3.9219   5.3908

     occupation numbers
     1.0000   1.0000   1.0000   1.0000   0.0000   0.0000   0.0000   0.0000

     the Fermi energy is    -2.1732 ev

!    total energy              =     -15.10408232 Ry
     estimated scf accuracy    <          3.1E-10 Ry
     smearing contrib. (-TS)   =      -0.00028792 Ry
     internal energy E=F+TS    =     -15.10379441 Ry

     The total energy is F=E-TS. E is the sum of the following terms:
     one-electron contribution =    -135.96794144 Ry
     hartree contribution      =      69.27475484 Ry
     xc contribution           =      -7.33815877 Ry
     ewald contribution        =      58.92755096 Ry
     electric field correction =       0.00000000 Ry

     convergence has been achieved in   8 iterations

     negative rho (up, down):  8.486E-05 0.000E+00

     Non-local corr. energy    =       0.09938433 Ry

     Forces acting on atoms (cartesian axes, Ry/au):

     atom    1 type  1   force =    -0.00008270   -0.00002251   -0.00000117
     atom    2 type  1   force =     0.00008460    0.00008509   -0.00000115
     atom    3 type  2   force =    -0.00000108   -0.00003132   -0.00001443
     atom    4 type  2   force =    -0.00000083   -0.00003126    0.00001675
     The non-local contrib.  to forces
     atom    1 type  1   force =    -0.00139295   -0.35745649   -0.00000083
     atom    2 type  1   force =     0.00140119    0.35756988   -0.00000085
     atom    3 type  2   force =    -0.00000286    0.00001182   -0.11296801
     atom    4 type  2   force =    -0.00000260    0.00001186    0.11296676
     The ionic contribution  to forces
     atom    1 type  1   force =     0.00230372    0.67671331    0.00000000
     atom    2 type  1   force =    -0.00233914   -0.67648273    0.00000000
     atom    3 type  2   force =     0.00001771   -0.00011529    2.80040747
     atom    4 type  2   force =     0.00001771   -0.00011529   -2.80040747
     The local contribution  to forces
     atom    1 type  1   force =    -0.00102536   -0.32721367   -0.00002493
     atom    2 type  1   force =     0.00105457    0.32693785   -0.00002488
     atom    3 type  2   force =    -0.00001592    0.00007193   -2.68746165
     atom    4 type  2   force =    -0.00001592    0.00007197    2.68745342
     The core correction contribution to forces
     atom    1 type  1   force =     0.00003195    0.00793526    0.00000109
     atom    2 type  1   force =    -0.00003204   -0.00794074    0.00000109
     atom    3 type  2   force =     0.00000000    0.00000000    0.00000000
     atom    4 type  2   force =     0.00000000    0.00000000    0.00000000
     The Hubbard contrib.    to forces
     atom    1 type  1   force =     0.00000000    0.00000000    0.00000000
     atom    2 type  1   force =     0.00000000    0.00000000    0.00000000
     atom    3 type  2   force =     0.00000000    0.00000000    0.00000000
     atom    4 type  2   force =     0.00000000    0.00000000    0.00000000
     The SCF correction term to forces
     atom    1 type  1   force =    -0.00000005   -0.00000093    0.00002407
     atom    2 type  1   force =     0.00000004    0.00000082    0.00002406
     atom    3 type  2   force =     0.00000000    0.00000020    0.00000675
     atom    4 type  2   force =    -0.00000001    0.00000019    0.00000302

     Total force =     0.000156     Total SCF correction =     0.000035
     SCF correction compared to forces is large: reduce conv_thr to get better values

     Writing all to output data dir ./TMPDIR/pwscf.save/

     General routines

     Parallel routines

   This run was terminated on:  12: 4:18   2May2023

   JOB DONE.